GLPSOL--GLPK LP/MIP Solver 5.0
Parameter(s) specified in the command line:
 --lp ../modeles/3_279.lp --log 3_279.log
Reading problem data from '../modeles/3_279.lp'...
850 rows, 1680 columns, 5874 non-zeros
837 integer variables, all of which are binary
2539 lines were read
GLPK Integer Optimizer 5.0
850 rows, 1680 columns, 5874 non-zeros
837 integer variables, all of which are binary
Preprocessing...
834 constraint coefficient(s) were reduced
850 rows, 1677 columns, 5871 non-zeros
837 integer variables, all of which are binary
Scaling...
 A: min|aij| =  5.139e-05  max|aij| =  4.000e+00  ratio =  7.784e+04
GM: min|aij| =  5.987e-02  max|aij| =  1.670e+01  ratio =  2.790e+02
EQ: min|aij| =  3.584e-03  max|aij| =  1.000e+00  ratio =  2.790e+02
2N: min|aij| =  3.289e-03  max|aij| =  1.748e+00  ratio =  5.316e+02
Constructing initial basis...
Size of triangular part is 850
Solving LP relaxation...
GLPK Simplex Optimizer 5.0
850 rows, 1677 columns, 5871 non-zeros
      0: obj =   6.000000000e+00 inf =   1.450e+01 (7)
     50: obj =   4.999293422e-01 inf =   0.000e+00 (0)
*   189: obj =  -1.731955645e+00 inf =   8.278e-17 (0)
OPTIMAL LP SOLUTION FOUND
Integer optimization begins...
Long-step dual simplex will be used
+   189: mip =     not found yet >=              -inf        (1; 0)
+   346: >>>>>  -1.731955645e+00 >=  -1.731955645e+00 < 0.1% (157; 0)
+   346: mip =  -1.731955645e+00 >=     tree is empty   0.0% (0; 313)
INTEGER OPTIMAL SOLUTION FOUND
Time used:   0.2 secs
Memory used: 2.5 Mb (2632699 bytes)
